
Gurobi 6.0.4 (win64) logging started 06/16/15 10:36:57

Read LP format model from file C:\MT\repository\VRPTWMS\instances\mip\freight\N10-C_DV10-C_SV50_F22_0_No_1.lp
Reading time = 0.01 seconds
(null): 521 rows, 309 columns, 2253 nonzeros
Optimize a model with 521 rows, 309 columns and 2253 nonzeros
Model has 1210 quadratic constraints
Coefficient statistics:
  Matrix range    [1e+00, 1e+06]
  Objective range [2e+04, 1e+07]
  Bounds range    [1e+00, 1e+06]
  RHS range       [1e+00, 1e+06]
Presolve removed 87 rows and 38 columns
Presolve time: 0.08s
Presolved: 2935 rows, 1571 columns, 13784 nonzeros
Variable types: 1200 continuous, 371 integer (307 binary)
Found heuristic solution: objective 1.045314e+08

Root relaxation: objective 6.393053e+06, 283 iterations, 0.01 seconds

    Nodes    |    Current Node    |     Objective Bounds      |     Work
 Expl Unexpl |  Obj  Depth IntInf | Incumbent    BestBd   Gap | It/Node Time

     0     0 6393053.38    0   69 1.0453e+08 6393053.38  93.9%     -    0s
H    0     0                    9.417090e+07 6393053.38  93.2%     -    0s
H    0     0                    5.346370e+07 6393053.38  88.0%     -    0s
     0     0 1.2044e+07    0   43 5.3464e+07 1.2044e+07  77.5%     -    0s
     0     0 1.2153e+07    0   23 5.3464e+07 1.2153e+07  77.3%     -    0s
     0     0 1.2165e+07    0   22 5.3464e+07 1.2165e+07  77.2%     -    0s
     0     0 1.2166e+07    0   56 5.3464e+07 1.2166e+07  77.2%     -    0s
     0     0 1.2167e+07    0   34 5.3464e+07 1.2167e+07  77.2%     -    0s
     0     0 1.2167e+07    0   54 5.3464e+07 1.2167e+07  77.2%     -    0s
     0     0 1.2167e+07    0   54 5.3464e+07 1.2167e+07  77.2%     -    0s
     0     0 1.2167e+07    0   54 5.3464e+07 1.2167e+07  77.2%     -    0s
     0     0 1.2167e+07    0   54 5.3464e+07 1.2167e+07  77.2%     -    0s
H    0     0                    5.339430e+07 1.2167e+07  77.2%     -    0s
     0     2 1.2167e+07    0   54 5.3394e+07 1.2167e+07  77.2%     -    0s
H   30    30                    4.309970e+07 1.2208e+07  71.7%  47.4    0s
H  103    72                    4.300160e+07 1.2221e+07  71.6%  51.5    0s
H  423   275                    4.297180e+07 1.2247e+07  71.5%  52.6    1s
H  643   311                    3.320280e+07 1.2382e+07  62.7%  52.0    2s
   763   364 2.2667e+07   10  101 3.3203e+07 1.6412e+07  50.6%  50.9    5s
   813   401 2.2690e+07   24   54 3.3203e+07 2.2429e+07  32.4%  18.1   10s
*  937   423              48    3.310530e+07 2.2514e+07  32.0%  23.9   10s
  1901   559 infeasible   40      3.3105e+07 2.2610e+07  31.7%  53.9   15s
* 2035   606              42    3.307110e+07 2.2617e+07  31.6%  55.2   15s
* 2069   614              41    3.300170e+07 2.2619e+07  31.5%  55.6   15s
H 2285   676                    3.296990e+07 2.2645e+07  31.3%  58.8   16s
  2916   828 2.2793e+07   30   47 3.2970e+07 2.2690e+07  31.2%  67.5   20s
  3555   979 2.2981e+07   32   57 3.2970e+07 2.2723e+07  31.1%  72.6   25s
  4318  1155 2.3256e+07   38   48 3.2970e+07 2.2765e+07  31.0%  77.3   30s
  5063  1283 2.4678e+07   38  109 3.2970e+07 2.2791e+07  30.9%  82.7   35s
  5955  1384 2.8388e+07   41   79 3.2970e+07 2.2835e+07  30.7%  86.0   40s
  6851  1516 2.3575e+07   45   93 3.2970e+07 2.2866e+07  30.6%  89.0   45s
  7531  1538 2.2895e+07   34   80 3.2970e+07 2.2894e+07  30.6%  92.1   50s
  8387  1578 infeasible   49      3.2970e+07 2.2929e+07  30.5%  95.0   55s
  9158  1574 2.3308e+07   34   14 3.2970e+07 2.2963e+07  30.4%  98.0   60s
 10262  1574     cutoff   42      3.2970e+07 2.3008e+07  30.2%   101   65s
 11072  1475 infeasible   45      3.2970e+07 2.3055e+07  30.1%   104   70s
 11882  1396 2.3479e+07   40   15 3.2970e+07 2.3109e+07  29.9%   106   75s
 12736  1322 2.3875e+07   33   75 3.2970e+07 2.3160e+07  29.8%   108   80s
 13644  1106 infeasible   46      3.2970e+07 2.3255e+07  29.5%   111   85s
 14377   920 infeasible   33      3.2970e+07 2.3352e+07  29.2%   113   90s
 14926   780 infeasible   42      3.2970e+07 2.3450e+07  28.9%   114   95s
 15787   421 infeasible   42      3.2970e+07 2.3796e+07  27.8%   116  100s

Cutting planes:
  Learned: 2
  Cover: 279
  Implied bound: 337
  Clique: 9
  MIR: 49
  Flow cover: 99
  GUB cover: 5
  Zero half: 28

Explored 16684 nodes (1988347 simplex iterations) in 104.09 seconds
Thread count was 2 (of 4 available processors)

Optimal solution found (tolerance 1.00e-04)
Best objective 3.296990000000e+07, best bound 3.296990000000e+07, gap 0.0%
k_c1	60000.0
k_c10	0.0
k_c2	50000.0
k_c3	100000.0
k_c4	40000.0
k_c5	100000.0
k_c6	0.0
k_c7	20000.0
k_c8	20000.0
k_c9	10000.0
k_dN	-0.0
kDash_c1	10000.0
kDash_c10	20000.0
kDash_c2	20000.0
kDash_c3	60000.0
kDash_c4	-0.0
kDash_c5	50000.0
kDash_c6	40000.0
kDash_c7	-0.0
kDash_c8	0.0
kDash_c9	0.0
o_1	-0.0
o_10	1.0
o_2	0.0
o_3	-0.0
o_4	0.0
o_5	-0.0
o_6	1.0
o_7	-0.0
o_8	0.0
o_9	0.0
p_1	0.0
p_10	1.0
p_2	-0.0
p_3	0.0
p_4	-0.0
p_5	0.0
p_6	1.0
p_7	0.0
p_8	0.0
p_9	0.0
phi_c1	72553.0
phi_c10	154065.0
phi_c2	189006.0
phi_c3	73891.0
phi_c4	22438.0
phi_c5	201342.0
phi_c6	44676.0
phi_c7	16110.0
phi_c8	181527.0
phi_c9	60872.0
phi_d0	220000.0
phi_dN	-0.0
pi_c1	200000.0
pi_c10	100000.0
pi_c2	120000.0
pi_c3	120000.0
pi_c4	120000.0
pi_c5	120000.0
pi_c6	200000.0
pi_c7	120000.0
pi_c8	120000.0
pi_c9	120000.0
pi_dN	-0.0
tauD_c1	175000.0
tauD_c10	620000.0
tauD_c2	205825.0
tauD_c3	100000.0
tauD_c4	633100.0
tauD_c5	69725.0
tauD_c6	420000.0
tauD_c7	765000.0
tauD_c8	450000.0
tauD_c9	250000.0
tauD_d0	-0.0
tauD_dN	1000000.0
tauS_c1	716524.0
tauS_c10	529150.0
tauS_c2	135125.0
tauS_c3	133100.0
tauS_c4	126975.0
tauS_c5	142450.0
tauS_c6	420000.0
tauS_c7	156925.0
tauS_c8	257950.0
tauS_c9	-0.0
tauS_d0	-0.0
tauS_dN	744725.0
x_c10_c7	1.0
x_c1_c9	1.0
x_c2_c8	1.0
x_c3_c1	1.0
x_c4_dN	1.0
x_c5_c2	1.0
x_c6_c4	1.0
x_c7_dN	1.0
x_c8_c10	1.0
x_c9_c6	1.0
x_d0_c3	1.0
x_d0_c5	1.0
z_c10_dN	1.0
z_c6_c10	1.0
z_d0_c6	1.0
